\ Model MTZ_MODEL
\ LP format - for model browsing. Use MPS format to capture full model detail.
Minimize
  p[0,1] + p[0,2] + p[0,3] + p[0,4] + p[1,0] + p[1,2] + p[1,3] + p[1,4]
   + p[2,0] + p[2,1] + p[2,3] + p[2,4] + p[3,0] + p[3,1] + p[3,2] + p[3,4]
   + p[4,0] + p[4,1] + p[4,2] + p[4,3] + dc[0] + dc[1] + dc[2] + dc[3]
   + dc[4]
Subject To
 p2: p[0,1] - 27.36725181704513 z[0,1] >= 0
 p3: p[0,1] - 87.23160929239646 z[0,1] - dcc[0,1] >= -87.23160929239646
 R2: dcc[0,1] <= 87.23160929239646
 R3: x[0,1,0] - x[1,0,0] + dif[0,1,0] >= 0
 R4: - x[0,1,0] + x[1,0,0] + dif[0,1,0] >= 0
 R5: x[0,1,1] - x[1,0,1] + dif[0,1,1] >= 0
 R6: - x[0,1,1] + x[1,0,1] + dif[0,1,1] >= 0
 p2: p[0,2] - 2.741223177536646 z[0,2] >= 0
 p3: p[0,2] - 38.42332048939251 z[0,2] - dcc[0,2] >= -38.42332048939251
 R9: dcc[0,2] <= 38.42332048939251
 R10: x[0,1,0] - x[2,0,0] + dif[0,2,0] >= 0
 R11: - x[0,1,0] + x[2,0,0] + dif[0,2,0] >= 0
 R12: x[0,1,1] - x[2,0,1] + dif[0,2,1] >= 0
 R13: - x[0,1,1] + x[2,0,1] + dif[0,2,1] >= 0
 p2: p[0,3] - 21.15104096398038 z[0,3] >= 0
 p3: p[0,3] - 93.61426673075835 z[0,3] - dcc[0,3] >= -93.61426673075835
 R16: dcc[0,3] <= 93.61426673075835
 R17: x[0,1,0] - x[3,0,0] + dif[0,3,0] >= 0
 R18: - x[0,1,0] + x[3,0,0] + dif[0,3,0] >= 0
 R19: x[0,1,1] - x[3,0,1] + dif[0,3,1] >= 0
 R20: - x[0,1,1] + x[3,0,1] + dif[0,3,1] >= 0
 p2: p[0,4] - 12.40081906185175 z[0,4] >= 0
 p3: p[0,4] - 65.69684993037482 z[0,4] - dcc[0,4] >= -65.69684993037482
 R23: dcc[0,4] <= 65.69684993037482
 R24: x[0,1,0] - x[4,0,0] + dif[0,4,0] >= 0
 R25: - x[0,1,0] + x[4,0,0] + dif[0,4,0] >= 0
 R26: x[0,1,1] - x[4,0,1] + dif[0,4,1] >= 0
 R27: - x[0,1,1] + x[4,0,1] + dif[0,4,1] >= 0
 p2: p[1,0] - 27.36725181704513 z[1,0] >= 0
 p3: p[1,0] - 87.23160929239646 z[1,0] - dcc[1,0] >= -87.23160929239646
 R30: dcc[1,0] <= 87.23160929239646
 R31: - x[0,0,0] + x[1,1,0] + dif[1,0,0] >= 0
 R32: x[0,0,0] - x[1,1,0] + dif[1,0,0] >= 0
 R33: - x[0,0,1] + x[1,1,1] + dif[1,0,1] >= 0
 R34: x[0,0,1] - x[1,1,1] + dif[1,0,1] >= 0
 p2: p[1,2] - 31.57675063796393 z[1,2] >= 0
 p3: p[1,2] - 89.36262384586735 z[1,2] - dcc[1,2] >= -89.36262384586735
 R37: dcc[1,2] <= 89.36262384586735
 R38: x[1,1,0] - x[2,0,0] + dif[1,2,0] >= 0
 R39: - x[1,1,0] + x[2,0,0] + dif[1,2,0] >= 0
 R40: x[1,1,1] - x[2,0,1] + dif[1,2,1] >= 0
 R41: - x[1,1,1] + x[2,0,1] + dif[1,2,1] >= 0
 p2: p[1,3] - 5.992423420598262 z[1,3] >= 0
 p3: p[1,3] - 56.7719850910544 z[1,3] - dcc[1,3] >= -56.7719850910544
 R44: dcc[1,3] <= 56.7719850910544
 R45: x[1,1,0] - x[3,0,0] + dif[1,3,0] >= 0
 R46: - x[1,1,0] + x[3,0,0] + dif[1,3,0] >= 0
 R47: x[1,1,1] - x[3,0,1] + dif[1,3,1] >= 0
 R48: - x[1,1,1] + x[3,0,1] + dif[1,3,1] >= 0
 p2: p[1,4] - 28.75327977037201 z[1,4] >= 0
 p3: p[1,4] - 88.64796145813681 z[1,4] - dcc[1,4] >= -88.64796145813681
 R51: dcc[1,4] <= 88.64796145813681
 R52: x[1,1,0] - x[4,0,0] + dif[1,4,0] >= 0
 R53: - x[1,1,0] + x[4,0,0] + dif[1,4,0] >= 0
 R54: x[1,1,1] - x[4,0,1] + dif[1,4,1] >= 0
 R55: - x[1,1,1] + x[4,0,1] + dif[1,4,1] >= 0
 p2: p[2,0] - 2.741223177536646 z[2,0] >= 0
 p3: p[2,0] - 38.42332048939251 z[2,0] - dcc[2,0] >= -38.42332048939251
 R58: dcc[2,0] <= 38.42332048939251
 R59: - x[0,0,0] + x[2,1,0] + dif[2,0,0] >= 0
 R60: x[0,0,0] - x[2,1,0] + dif[2,0,0] >= 0
 R61: - x[0,0,1] + x[2,1,1] + dif[2,0,1] >= 0
 R62: x[0,0,1] - x[2,1,1] + dif[2,0,1] >= 0
 p2: p[2,1] - 31.57675063796393 z[2,1] >= 0
 p3: p[2,1] - 89.36262384586735 z[2,1] - dcc[2,1] >= -89.36262384586735
 R65: dcc[2,1] <= 89.36262384586735
 R66: - x[1,0,0] + x[2,1,0] + dif[2,1,0] >= 0
 R67: x[1,0,0] - x[2,1,0] + dif[2,1,0] >= 0
 R68: - x[1,0,1] + x[2,1,1] + dif[2,1,1] >= 0
 R69: x[1,0,1] - x[2,1,1] + dif[2,1,1] >= 0
 p2: p[2,3] - 26.3835369398789 z[2,3] >= 0
 p3: p[2,3] - 96.47047895361466 z[2,3] - dcc[2,3] >= -96.47047895361466
 R72: dcc[2,3] <= 96.47047895361466
 R73: x[2,1,0] - x[3,0,0] + dif[2,3,0] >= 0
 R74: - x[2,1,0] + x[3,0,0] + dif[2,3,0] >= 0
 R75: x[2,1,1] - x[3,0,1] + dif[2,3,1] >= 0
 R76: - x[2,1,1] + x[3,0,1] + dif[2,3,1] >= 0
 p2: p[2,4] - 13.16446075429179 z[2,4] >= 0
 p3: p[2,4] - 69.81370746706786 z[2,4] - dcc[2,4] >= -69.81370746706786
 R79: dcc[2,4] <= 69.81370746706786
 R80: x[2,1,0] - x[4,0,0] + dif[2,4,0] >= 0
 R81: - x[2,1,0] + x[4,0,0] + dif[2,4,0] >= 0
 R82: x[2,1,1] - x[4,0,1] + dif[2,4,1] >= 0
 R83: - x[2,1,1] + x[4,0,1] + dif[2,4,1] >= 0
 p2: p[3,0] - 21.15104096398038 z[3,0] >= 0
 p3: p[3,0] - 93.61426673075835 z[3,0] - dcc[3,0] >= -93.61426673075835
 R86: dcc[3,0] <= 93.61426673075835
 R87: - x[0,0,0] + x[3,1,0] + dif[3,0,0] >= 0
 R88: x[0,0,0] - x[3,1,0] + dif[3,0,0] >= 0
 R89: - x[0,0,1] + x[3,1,1] + dif[3,0,1] >= 0
 R90: x[0,0,1] - x[3,1,1] + dif[3,0,1] >= 0
 p2: p[3,1] - 5.992423420598262 z[3,1] >= 0
 p3: p[3,1] - 56.7719850910544 z[3,1] - dcc[3,1] >= -56.7719850910544
 R93: dcc[3,1] <= 56.7719850910544
 R94: - x[1,0,0] + x[3,1,0] + dif[3,1,0] >= 0
 R95: x[1,0,0] - x[3,1,0] + dif[3,1,0] >= 0
 R96: - x[1,0,1] + x[3,1,1] + dif[3,1,1] >= 0
 R97: x[1,0,1] - x[3,1,1] + dif[3,1,1] >= 0
 p2: p[3,2] - 26.3835369398789 z[3,2] >= 0
 p3: p[3,2] - 96.47047895361466 z[3,2] - dcc[3,2] >= -96.47047895361466
 R100: dcc[3,2] <= 96.47047895361466
 R101: - x[2,0,0] + x[3,1,0] + dif[3,2,0] >= 0
 R102: x[2,0,0] - x[3,1,0] + dif[3,2,0] >= 0
 R103: - x[2,0,1] + x[3,1,1] + dif[3,2,1] >= 0
 R104: x[2,0,1] - x[3,1,1] + dif[3,2,1] >= 0
 p2: p[3,4] - 11.6277187280877 z[3,4] >= 0
 p3: p[3,4] - 79.28542224832158 z[3,4] - dcc[3,4] >= -79.28542224832158
 R107: dcc[3,4] <= 79.28542224832158
 R108: x[3,1,0] - x[4,0,0] + dif[3,4,0] >= 0
 R109: - x[3,1,0] + x[4,0,0] + dif[3,4,0] >= 0
 R110: x[3,1,1] - x[4,0,1] + dif[3,4,1] >= 0
 R111: - x[3,1,1] + x[4,0,1] + dif[3,4,1] >= 0
 p2: p[4,0] - 12.40081906185175 z[4,0] >= 0
 p3: p[4,0] - 65.69684993037482 z[4,0] - dcc[4,0] >= -65.69684993037482
 R114: dcc[4,0] <= 65.69684993037482
 R115: - x[0,0,0] + x[4,1,0] + dif[4,0,0] >= 0
 R116: x[0,0,0] - x[4,1,0] + dif[4,0,0] >= 0
 R117: - x[0,0,1] + x[4,1,1] + dif[4,0,1] >= 0
 R118: x[0,0,1] - x[4,1,1] + dif[4,0,1] >= 0
 p2: p[4,1] - 28.75327977037201 z[4,1] >= 0
 p3: p[4,1] - 88.64796145813681 z[4,1] - dcc[4,1] >= -88.64796145813681
 R121: dcc[4,1] <= 88.64796145813681
 R122: - x[1,0,0] + x[4,1,0] + dif[4,1,0] >= 0
 R123: x[1,0,0] - x[4,1,0] + dif[4,1,0] >= 0
 R124: - x[1,0,1] + x[4,1,1] + dif[4,1,1] >= 0
 R125: x[1,0,1] - x[4,1,1] + dif[4,1,1] >= 0
 p2: p[4,2] - 13.16446075429179 z[4,2] >= 0
 p3: p[4,2] - 69.81370746706786 z[4,2] - dcc[4,2] >= -69.81370746706786
 R128: dcc[4,2] <= 69.81370746706786
 R129: - x[2,0,0] + x[4,1,0] + dif[4,2,0] >= 0
 R130: x[2,0,0] - x[4,1,0] + dif[4,2,0] >= 0
 R131: - x[2,0,1] + x[4,1,1] + dif[4,2,1] >= 0
 R132: x[2,0,1] - x[4,1,1] + dif[4,2,1] >= 0
 p2: p[4,3] - 11.6277187280877 z[4,3] >= 0
 p3: p[4,3] - 79.28542224832158 z[4,3] - dcc[4,3] >= -79.28542224832158
 R135: dcc[4,3] <= 79.28542224832158
 R136: - x[3,0,0] + x[4,1,0] + dif[4,3,0] >= 0
 R137: x[3,0,0] - x[4,1,0] + dif[4,3,0] >= 0
 R138: - x[3,0,1] + x[4,1,1] + dif[4,3,1] >= 0
 R139: x[3,0,1] - x[4,1,1] + dif[4,3,1] >= 0
 R140: z[0,1] + z[0,2] + z[0,3] + z[0,4] = 1
 R141: z[1,0] + z[1,2] + z[1,3] + z[1,4] = 1
 R142: z[2,0] + z[2,1] + z[2,3] + z[2,4] = 1
 R143: z[3,0] + z[3,1] + z[3,2] + z[3,4] = 1
 R144: z[4,0] + z[4,1] + z[4,2] + z[4,3] = 1
 R145: z[1,0] + z[2,0] + z[3,0] + z[4,0] = 1
 R146: z[0,1] + z[2,1] + z[3,1] + z[4,1] = 1
 R147: z[0,2] + z[1,2] + z[3,2] + z[4,2] = 1
 R148: z[0,3] + z[1,3] + z[2,3] + z[4,3] = 1
 R149: z[0,4] + z[1,4] + z[2,4] + z[3,4] = 1
 rest7: z[0,1] + z[1,0] <= 1
 rest7: z[0,2] + z[2,0] <= 1
 rest7: z[0,3] + z[3,0] <= 1
 rest7: z[0,4] + z[4,0] <= 1
 rest7: z[0,1] + z[1,0] <= 1
 rest7: z[1,2] + z[2,1] <= 1
 rest7: z[1,3] + z[3,1] <= 1
 rest7: z[1,4] + z[4,1] <= 1
 rest7: z[0,2] + z[2,0] <= 1
 rest7: z[1,2] + z[2,1] <= 1
 rest7: z[2,3] + z[3,2] <= 1
 rest7: z[2,4] + z[4,2] <= 1
 rest7: z[0,3] + z[3,0] <= 1
 rest7: z[1,3] + z[3,1] <= 1
 rest7: z[2,3] + z[3,2] <= 1
 rest7: z[3,4] + z[4,3] <= 1
 rest7: z[0,4] + z[4,0] <= 1
 rest7: z[1,4] + z[4,1] <= 1
 rest7: z[2,4] + z[4,2] <= 1
 rest7: z[3,4] + z[4,3] <= 1
 R170: 5 z[1,2] + sc[1] - sc[2] <= 4
 R171: 5 z[1,3] + sc[1] - sc[3] <= 4
 R172: 5 z[1,4] + sc[1] - sc[4] <= 4
 R173: 5 z[2,1] - sc[1] + sc[2] <= 4
 R174: 5 z[2,3] + sc[2] - sc[3] <= 4
 R175: 5 z[2,4] + sc[2] - sc[4] <= 4
 R176: 5 z[3,1] - sc[1] + sc[3] <= 4
 R177: 5 z[3,2] - sc[2] + sc[3] <= 4
 R178: 5 z[3,4] + sc[3] - sc[4] <= 4
 R179: 5 z[4,1] - sc[1] + sc[4] <= 4
 R180: 5 z[4,2] - sc[2] + sc[4] <= 4
 R181: 5 z[4,3] - sc[3] + sc[4] <= 4
 rest10: sc[0] = 0
 rest11: sc[1] >= 1
 rest11: sc[2] >= 1
 rest11: sc[3] >= 1
 rest11: sc[4] >= 1
 R187: dc[0] <= 35.08457466846927
 envConv: mu[0,0] + mu[0,1] + mu[0,2] + mu[0,3] + mu[0,4] = 1
 inP1: x[0,0,0] - 84.69370986368605 mu[0,0] - 84.91028524486617 mu[0,1]
   - 60.10268993742113 mu[0,2] - 59.88611455624108 mu[0,3]
   - 84.69370986368614 mu[0,4] = 0
 inP1: x[0,1,0] - 84.69370986368605 mu[0,0] - 84.91028524486617 mu[0,1]
   - 60.10268993742113 mu[0,2] - 59.88611455624108 mu[0,3]
   - 84.69370986368614 mu[0,4] = 0
 inP1: x[0,0,1] - 58.07151149570141 mu[0,0] - 82.87910680314629 mu[0,1]
   - 83.09568218432638 mu[0,2] - 58.28808687688149 mu[0,3]
   - 58.07151149570149 mu[0,4] = 0
 inP1: x[0,1,1] - 58.07151149570141 mu[0,0] - 82.87910680314629 mu[0,1]
   - 83.09568218432638 mu[0,2] - 58.28808687688149 mu[0,3]
   - 58.07151149570149 mu[0,4] = 0
 R193: - x[0,0,0] + x[0,1,0] + difc[0,0] >= 0
 R194: x[0,0,0] - x[0,1,0] + difc[0,0] >= 0
 R195: - x[0,0,1] + x[0,1,1] + difc[0,1] >= 0
 R196: x[0,0,1] - x[0,1,1] + difc[0,1] >= 0
 R197: dc[1] <= 30.70685916671653
 envConv: mu[1,0] + mu[1,1] + mu[1,2] + mu[1,3] + mu[1,4] + mu[1,5]
   + mu[1,6] + mu[1,7] + mu[1,8] + mu[1,9] = 1
 inP1: x[1,0,0] - 51.78226293403618 mu[1,0] - 44.38682077847943 mu[1,1]
   - 43.66045328975109 mu[1,2] - 49.94303588850251 mu[1,3]
   - 60.29487835364952 mu[1,4] - 69.87223854783659 mu[1,5]
   - 74.19376319570083 mu[1,6] - 71.23736288611019 mu[1,7]
   - 62.38637018065188 mu[1,8] - 51.78226293403608 mu[1,9] = 0
 inP1: x[1,1,0] - 51.78226293403618 mu[1,0] - 44.38682077847943 mu[1,1]
   - 43.66045328975109 mu[1,2] - 49.94303588850251 mu[1,3]
   - 60.29487835364952 mu[1,4] - 69.87223854783659 mu[1,5]
   - 74.19376319570083 mu[1,6] - 71.23736288611019 mu[1,7]
   - 62.38637018065188 mu[1,8] - 51.78226293403608 mu[1,9] = 0
 inP1: x[1,0,1] - 29.90306796340151 mu[1,0] - 22.21955041496557 mu[1,1]
   - 11.5799359076341 mu[1,2] - 2.962618315530714 mu[1,3]
   - 0.3997363108182679 mu[1,4] - 5.090490866762309 mu[1,5]
   - 14.8400257947064 mu[1,6] - 25.08642534785487 mu[1,7]
   - 31.03528529924251 mu[1,8] - 29.90306796340146 mu[1,9] = 0
 inP1: x[1,1,1] - 29.90306796340151 mu[1,0] - 22.21955041496557 mu[1,1]
   - 11.5799359076341 mu[1,2] - 2.962618315530714 mu[1,3]
   - 0.3997363108182679 mu[1,4] - 5.090490866762309 mu[1,5]
   - 14.8400257947064 mu[1,6] - 25.08642534785487 mu[1,7]
   - 31.03528529924251 mu[1,8] - 29.90306796340146 mu[1,9] = 0
 R203: - x[1,0,0] + x[1,1,0] + difc[1,0] >= 0
 R204: x[1,0,0] - x[1,1,0] + difc[1,0] >= 0
 R205: - x[1,0,1] + x[1,1,1] + difc[1,1] >= 0
 R206: x[1,0,1] - x[1,1,1] + difc[1,1] >= 0
 R207: dc[2] <= 33.0286708607409
 envConv: mu[2,0] + mu[2,1] + mu[2,2] + mu[2,3] + mu[2,4] = 1
 inP1: x[2,0,0] - 86.53766453989854 mu[2,0] - 89.03614213046281 mu[2,1]
   - 65.81537213584329 mu[2,2] - 63.31689454527878 mu[2,3]
   - 86.53766453989827 mu[2,4] = 0
 inP1: x[2,1,0] - 86.53766453989854 mu[2,0] - 89.03614213046281 mu[2,1]
   - 65.81537213584329 mu[2,2] - 63.31689454527878 mu[2,3]
   - 86.53766453989827 mu[2,4] = 0
 inP1: x[2,0,1] - 60.09984471811353 mu[2,0] - 83.32061471273306 mu[2,1]
   - 85.81909230329745 mu[2,2] - 62.59832230867794 mu[2,3]
   - 60.09984471811331 mu[2,4] = 0
 inP1: x[2,1,1] - 60.09984471811353 mu[2,0] - 83.32061471273306 mu[2,1]
   - 85.81909230329745 mu[2,2] - 62.59832230867794 mu[2,3]
   - 60.09984471811331 mu[2,4] = 0
 R213: - x[2,0,0] + x[2,1,0] + difc[2,0] >= 0
 R214: x[2,0,0] - x[2,1,0] + difc[2,0] >= 0
 R215: - x[2,0,1] + x[2,1,1] + difc[2,1] >= 0
 R216: x[2,0,1] - x[2,1,1] + difc[2,1] >= 0
 R217: dc[3] <= 38.91084756590654
 envConv: mu[3,0] + mu[3,1] + mu[3,2] + mu[3,3] + mu[3,4] + mu[3,5]
   + mu[3,6] + mu[3,7] + mu[3,8] + mu[3,9] = 1
 inP1: x[3,0,0] - 28.18276355752398 mu[3,0] - 19.82564045617552 mu[3,1]
   - 20.24985561905298 mu[3,2] - 29.25691405681961 mu[3,3]
   - 42.63231302414025 mu[3,4] - 54.11755469320428 mu[3,5]
   - 58.33856684281351 mu[3,6] - 53.32029097684131 mu[3,7]
   - 41.41083414489992 mu[3,8] - 28.18276355752399 mu[3,9] = 0
 inP1: x[3,1,0] - 28.18276355752398 mu[3,0] - 19.82564045617552 mu[3,1]
   - 20.24985561905298 mu[3,2] - 29.25691405681961 mu[3,3]
   - 42.63231302414025 mu[3,4] - 54.11755469320428 mu[3,5]
   - 58.33856684281351 mu[3,6] - 53.32029097684131 mu[3,7]
   - 41.41083414489992 mu[3,8] - 28.18276355752399 mu[3,9] = 0
 inP1: x[3,0,1] - 41.80481762383008 mu[3,0] - 31.18522450744204 mu[3,1]
   - 17.67828903027649 mu[3,2] - 7.604056414966017 mu[3,3]
   - 5.676372064838443 mu[3,4] - 12.79722091114373 mu[3,5]
   - 25.63467863927587 mu[3,6] - 38.18195610579145 mu[3,7]
   - 44.56804273665176 mu[3,8] - 41.80481762383008 mu[3,9] = 0
 inP1: x[3,1,1] - 41.80481762383008 mu[3,0] - 31.18522450744204 mu[3,1]
   - 17.67828903027649 mu[3,2] - 7.604056414966017 mu[3,3]
   - 5.676372064838443 mu[3,4] - 12.79722091114373 mu[3,5]
   - 25.63467863927587 mu[3,6] - 38.18195610579145 mu[3,7]
   - 44.56804273665176 mu[3,8] - 41.80481762383008 mu[3,9] = 0
 R223: - x[3,0,0] + x[3,1,0] + difc[3,0] >= 0
 R224: x[3,0,0] - x[3,1,0] + difc[3,0] >= 0
 R225: - x[3,0,1] + x[3,1,1] + difc[3,1] >= 0
 R226: x[3,0,1] - x[3,1,1] + difc[3,1] >= 0
 R227: dc[4] <= 29.81181399378097
 envConv: mu[4,0] + mu[4,1] + mu[4,2] + mu[4,3] + mu[4,4] + mu[4,5]
   + mu[4,6] + mu[4,7] + mu[4,8] + mu[4,9] = 1
 inP1: x[4,0,0] - 35.61951444025294 mu[4,0] - 45.43441502258627 mu[4,1]
   - 50.83445817314052 mu[4,2] - 49.29290368697671 mu[4,3]
   - 41.53106204064064 mu[4,4] - 31.18078520371405 mu[4,5]
   - 23.08508273870873 mu[4,6] - 21.03202380271144 mu[4,7]
   - 25.98225748908381 mu[4,8] - 35.61951444025293 mu[4,9] = 0
 inP1: x[4,1,0] - 35.61951444025294 mu[4,0] - 45.43441502258627 mu[4,1]
   - 50.83445817314052 mu[4,2] - 49.29290368697671 mu[4,3]
   - 41.53106204064064 mu[4,4] - 31.18078520371405 mu[4,5]
   - 23.08508273870873 mu[4,6] - 21.03202380271144 mu[4,7]
   - 25.98225748908381 mu[4,8] - 35.61951444025293 mu[4,9] = 0
 inP1: x[4,0,1] - 54.65092223102683 mu[4,0] - 57.946889465586 mu[4,1]
   - 66.78064333495135 mu[4,2] - 77.01877222740842 mu[4,3]
   - 83.87074185004818 mu[4,4] - 84.13043946527762 mu[4,5]
   - 77.6763496727134 mu[4,6] - 67.5284128155144 mu[4,7]
   - 58.43496133091961 mu[4,8] - 54.65092223102683 mu[4,9] = 0
 inP1: x[4,1,1] - 54.65092223102683 mu[4,0] - 57.946889465586 mu[4,1]
   - 66.78064333495135 mu[4,2] - 77.01877222740842 mu[4,3]
   - 83.87074185004818 mu[4,4] - 84.13043946527762 mu[4,5]
   - 77.6763496727134 mu[4,6] - 67.5284128155144 mu[4,7]
   - 58.43496133091961 mu[4,8] - 54.65092223102683 mu[4,9] = 0
 R233: - x[4,0,0] + x[4,1,0] + difc[4,0] >= 0
 R234: x[4,0,0] - x[4,1,0] + difc[4,0] >= 0
 R235: - x[4,0,1] + x[4,1,1] + difc[4,1] >= 0
 R236: x[4,0,1] - x[4,1,1] + difc[4,1] >= 0
 qc0: [ - dcc[0,1] ^2 + dif[0,1,0] ^2 + dif[0,1,1] ^2 ] <= 0
 qc1: [ - dcc[0,2] ^2 + dif[0,2,0] ^2 + dif[0,2,1] ^2 ] <= 0
 qc2: [ - dcc[0,3] ^2 + dif[0,3,0] ^2 + dif[0,3,1] ^2 ] <= 0
 qc3: [ - dcc[0,4] ^2 + dif[0,4,0] ^2 + dif[0,4,1] ^2 ] <= 0
 qc4: [ - dcc[1,0] ^2 + dif[1,0,0] ^2 + dif[1,0,1] ^2 ] <= 0
 qc5: [ - dcc[1,2] ^2 + dif[1,2,0] ^2 + dif[1,2,1] ^2 ] <= 0
 qc6: [ - dcc[1,3] ^2 + dif[1,3,0] ^2 + dif[1,3,1] ^2 ] <= 0
 qc7: [ - dcc[1,4] ^2 + dif[1,4,0] ^2 + dif[1,4,1] ^2 ] <= 0
 qc8: [ - dcc[2,0] ^2 + dif[2,0,0] ^2 + dif[2,0,1] ^2 ] <= 0
 qc9: [ - dcc[2,1] ^2 + dif[2,1,0] ^2 + dif[2,1,1] ^2 ] <= 0
 qc10: [ - dcc[2,3] ^2 + dif[2,3,0] ^2 + dif[2,3,1] ^2 ] <= 0
 qc11: [ - dcc[2,4] ^2 + dif[2,4,0] ^2 + dif[2,4,1] ^2 ] <= 0
 qc12: [ - dcc[3,0] ^2 + dif[3,0,0] ^2 + dif[3,0,1] ^2 ] <= 0
 qc13: [ - dcc[3,1] ^2 + dif[3,1,0] ^2 + dif[3,1,1] ^2 ] <= 0
 qc14: [ - dcc[3,2] ^2 + dif[3,2,0] ^2 + dif[3,2,1] ^2 ] <= 0
 qc15: [ - dcc[3,4] ^2 + dif[3,4,0] ^2 + dif[3,4,1] ^2 ] <= 0
 qc16: [ - dcc[4,0] ^2 + dif[4,0,0] ^2 + dif[4,0,1] ^2 ] <= 0
 qc17: [ - dcc[4,1] ^2 + dif[4,1,0] ^2 + dif[4,1,1] ^2 ] <= 0
 qc18: [ - dcc[4,2] ^2 + dif[4,2,0] ^2 + dif[4,2,1] ^2 ] <= 0
 qc19: [ - dcc[4,3] ^2 + dif[4,3,0] ^2 + dif[4,3,1] ^2 ] <= 0
 qc20: [ - dc[0] ^2 + difc[0,0] ^2 + difc[0,1] ^2 ] <= 0
 qc21: [ - dc[1] ^2 + difc[1,0] ^2 + difc[1,1] ^2 ] <= 0
 qc22: [ - dc[2] ^2 + difc[2,0] ^2 + difc[2,1] ^2 ] <= 0
 qc23: [ - dc[3] ^2 + difc[3,0] ^2 + difc[3,1] ^2 ] <= 0
 qc24: [ - dc[4] ^2 + difc[4,0] ^2 + difc[4,1] ^2 ] <= 0
Bounds
 mu[0,0] <= 1
 mu[0,1] <= 1
 mu[0,2] <= 1
 mu[0,3] <= 1
 mu[0,4] <= 1
 mu[1,0] <= 1
 mu[1,1] <= 1
 mu[1,2] <= 1
 mu[1,3] <= 1
 mu[1,4] <= 1
 mu[1,5] <= 1
 mu[1,6] <= 1
 mu[1,7] <= 1
 mu[1,8] <= 1
 mu[1,9] <= 1
 mu[2,0] <= 1
 mu[2,1] <= 1
 mu[2,2] <= 1
 mu[2,3] <= 1
 mu[2,4] <= 1
 mu[3,0] <= 1
 mu[3,1] <= 1
 mu[3,2] <= 1
 mu[3,3] <= 1
 mu[3,4] <= 1
 mu[3,5] <= 1
 mu[3,6] <= 1
 mu[3,7] <= 1
 mu[3,8] <= 1
 mu[3,9] <= 1
 mu[4,0] <= 1
 mu[4,1] <= 1
 mu[4,2] <= 1
 mu[4,3] <= 1
 mu[4,4] <= 1
 mu[4,5] <= 1
 mu[4,6] <= 1
 mu[4,7] <= 1
 mu[4,8] <= 1
 mu[4,9] <= 1
 sc[0] <= 4
 sc[1] <= 4
 sc[2] <= 4
 sc[3] <= 4
 sc[4] <= 4
Binaries
 z[0,1] z[0,2] z[0,3] z[0,4] z[1,0] z[1,2] z[1,3] z[1,4] z[2,0] z[2,1]
 z[2,3] z[2,4] z[3,0] z[3,1] z[3,2] z[3,4] z[4,0] z[4,1] z[4,2] z[4,3]
End
